750
750 750
1 600 449
2 598 365
3 597 902
4 596 713
5 596 704
6 595 10
7 594 393
8 594 668
9 593 675
10 593 386
11 591 88
12 589 806
13 588 592
14 587 479
15 587 414
16 586 830
17 585 439
18 584 736
19 583 425
20 583 750
21 582 806
22 582 920
23 582 106
24 581 364
25 580 66
26 580 744
27 579 836
28 577 540
29 577 149
30 577 556
31 574 230
32 573 78
33 572 600
34 572 775
35 571 276
36 569 843
37 568 887
38 568 397
39 567 225
40 564 500
41 563 203
42 562 580
43 561 730
44 560 357
45 560 534
46 558 61
47 558 288
48 558 514
49 558 501
50 557 148
51 557 137
52 556 540
53 556 342
54 555 246
55 554 274
56 553 573
57 553 578
58 550 29
59 550 597
60 548 138
61 548 445
62 547 370
63 546 760
64 546 749
65 545 631
66 545 674
67 543 533
68 543 437
69 542 343
70 542 480
71 540 460
72 540 830
73 540 98
74 540 273
75 540 555
76 540 426
77 538 521
78 538 461
79 536 512
80 536 644
81 535 458
82 534 380
83 533 909
84 533 142
85 531 632
86 531 447
87 530 337
88 529 135
89 528 495
90 528 856
91 526 275
92 525 462
93 524 4
94 521 471
95 520 119
96 519 819
97 519 696
98 519 794
99 519 171
100 518 633
101 517 906
102 516 826
103 516 703
104 515 303
105 515 775
106 515 840
107 515 867
108 514 980
109 514 605
110 513 531
111 513 998
112 512 777
113 512 563
114 511 290
115 511 50
116 511 863
117 510 21
118 509 949
119 509 149
120 508 298
121 505 289
122 504 746
123 503 919
124 502 569
125 502 518
126 502 469
127 501 743
128 501 477
129 501 542
130 500 509
131 500 487
132 500 35
133 499 330
134 499 885
135 499 668
136 497 514
137 497 176
138 497 104
139 497 250
140 496 123
141 496 538
142 495 342
143 495 443
144 494 799
145 494 827
146 494 244
147 494 104
148 494 319
149 493 476
150 491 927
151 491 811
152 489 471
153 489 989
154 489 886
155 489 941
156 488 87
157 487 834
158 487 921
159 487 264
160 485 165
161 484 35
162 484 37
163 483 45
164 482 494
165 481 710
166 481 191
167 480 418
168 479 878
169 479 164
170 479 817
171 478 912
172 478 822
173 477 189
174 476 943
175 475 299
176 475 320
177 475 640
178 471 736
179 471 830
180 471 410
181 470 435
182 469 826
183 469 977
184 468 292
185 468 226
186 468 580
187 467 263
188 467 335
189 467 44
190 465 565
191 465 233
192 464 886
193 464 538
194 463 337
195 462 21
196 461 959
197 460 721
198 459 705
199 458 722
200 458 703
201 457 726
202 456 80
203 455 535
204 455 637
205 454 262
206 454 162
207 454 448
208 454 670
209 453 910
210 451 467
211 450 120
212 450 679
213 449 465
214 448 920
215 447 4
216 447 999
217 447 225
218 446 18
219 445 1
220 445 238
221 445 160
222 445 831
223 445 418
224 443 922
225 443 954
226 441 101
227 441 544
228 440 519
229 439 618
230 438 381
231 438 868
232 438 227
233 436 909
234 436 586
235 436 483
236 435 609
237 435 391
238 433 549
239 432 744
240 431 858
241 429 354
242 428 819
243 426 862
244 423 904
245 423 379
246 423 754
247 423 443
248 423 291
249 423 998
250 422 520
251 421 704
252 421 531
253 420 289
254 420 807
255 418 656
256 414 455
257 414 343
258 413 168
259 413 639
260 413 852
261 413 348
262 412 677
263 412 724
264 411 461
265 411 809
266 410 473
267 409 79
268 409 214
269 409 85
270 408 760
271 408 642
272 408 117
273 407 73
274 406 824
275 406 115
276 405 914
277 404 487
278 404 991
279 404 54
280 403 419
281 402 872
282 401 14
283 401 462
284 401 586
285 401 715
286 401 103
287 399 930
288 398 119
289 398 464
290 396 798
291 396 643
292 395 246
293 392 498
294 392 558
295 392 894
296 390 949
297 387 414
298 387 49
299 384 102
300 383 918
301 383 506
302 382 362
303 381 514
304 381 527
305 379 853
306 379 625
307 377 953
308 376 275
309 376 803
310 375 987
311 375 592
312 374 272
313 373 450
314 371 10
315 370 852
316 370 942
317 369 49
318 369 870
319 368 60
320 367 486
321 365 596
322 365 604
323 364 805
324 364 357
325 363 377
326 363 117
327 362 839
328 362 799
329 361 130
330 361 102
331 359 693
332 359 373
333 358 15
334 358 405
335 357 10
336 357 281
337 356 766
338 356 197
339 351 141
340 350 199
341 349 960
342 348 674
343 346 512
344 346 733
345 346 61
346 345 842
347 344 190
348 344 294
349 343 77
350 343 356
351 343 677
352 342 427
353 340 582
354 338 567
355 338 47
356 337 162
357 336 363
358 336 358
359 336 508
360 336 354
361 336 674
362 334 791
363 334 841
364 332 555
365 332 730
366 330 139
367 329 95
368 329 991
369 329 30
370 329 475
371 328 634
372 327 325
373 326 399
374 325 518
375 323 313
376 322 369
377 322 972
378 322 111
379 322 256
380 322 460
381 322 27
382 321 742
383 320 467
384 318 295
385 318 562
386 318 251
387 317 589
388 317 628
389 317 910
390 316 909
391 316 794
392 316 550
393 315 163
394 314 936
395 314 224
396 314 925
397 313 833
398 311 857
399 307 263
400 307 432
401 303 938
402 300 179
403 299 62
404 299 663
405 298 445
406 298 92
407 297 910
408 296 384
409 296 428
410 296 182
411 295 733
412 295 624
413 294 671
414 293 411
415 293 188
416 292 390
417 292 194
418 292 642
419 291 924
420 291 441
421 291 99
422 290 983
423 288 851
424 287 906
425 287 335
426 286 240
427 286 821
428 286 988
429 285 240
430 285 209
431 284 497
432 284 140
433 283 45
434 282 973
435 280 891
436 280 972
437 278 680
438 278 951
439 277 563
440 277 180
441 276 107
442 276 681
443 275 149
444 274 124
445 274 413
446 273 852
447 272 267
448 272 199
449 272 861
450 270 718
451 270 406
452 269 104
453 269 938
454 268 228
455 268 533
456 267 497
457 265 995
458 264 801
459 264 531
460 263 458
461 263 955
462 263 56
463 263 872
464 262 432
465 262 613
466 262 613
467 262 762
468 261 402
469 258 500
470 257 914
471 256 393
472 256 705
473 254 66
474 254 562
475 253 4
476 252 613
477 252 341
478 251 381
479 250 910
480 250 845
481 249 230
482 249 277
483 249 348
484 249 527
485 248 341
486 248 31
487 247 640
488 247 102
489 246 470
490 245 270
491 244 308
492 243 19
493 243 600
494 239 844
495 237 647
496 237 578
497 237 672
498 236 991
499 235 467
500 235 162
501 234 834
502 234 709
503 233 429
504 233 942
505 232 392
506 232 466
507 232 223
508 231 12
509 230 919
510 229 216
511 228 135
512 228 291
513 228 23
514 227 399
515 227 167
516 226 807
517 226 242
518 226 406
519 225 997
520 225 474
521 224 99
522 223 964
523 223 762
524 222 751
525 221 977
526 221 543
527 220 244
528 219 471
529 219 562
530 219 663
531 218 707
532 217 518
533 216 466
534 215 548
535 213 922
536 213 203
537 213 467
538 213 422
539 213 649
540 212 726
541 212 187
542 212 872
543 209 500
544 208 703
545 208 314
546 208 919
547 207 380
548 207 196
549 206 887
550 205 756
551 204 843
552 204 512
553 203 653
554 203 911
555 203 242
556 203 393
557 203 56
558 202 89
559 200 480
560 199 282
561 198 652
562 198 431
563 198 980
564 197 160
565 196 402
566 196 860
567 196 454
568 196 394
569 196 253
570 195 648
571 195 84
572 193 335
573 192 829
574 191 885
575 191 440
576 191 985
577 190 657
578 190 262
579 190 530
580 189 220
581 189 178
582 189 774
583 188 215
584 187 380
585 187 978
586 186 396
587 186 782
588 184 838
589 184 117
590 184 329
591 184 548
592 183 602
593 183 456
594 182 651
595 182 686
596 180 172
597 180 37
598 179 0
599 179 114
600 179 38
601 178 38
602 178 408
603 175 396
604 174 362
605 171 471
606 170 515
607 170 364
608 170 408
609 170 425
610 169 922
611 169 231
612 169 253
613 168 106
614 168 253
615 167 450
616 165 319
617 164 385
618 163 518
619 163 322
620 162 800
621 162 719
622 162 623
623 161 0
624 160 87
625 158 453
626 157 208
627 157 102
628 156 482
629 155 390
630 154 192
631 154 630
632 154 906
633 154 794
634 152 800
635 152 603
636 152 284
637 151 184
638 149 866
639 148 602
640 147 932
641 147 301
642 146 258
643 146 647
644 146 70
645 145 483
646 144 999
647 144 877
648 144 867
649 144 811
650 143 820
651 143 182
652 142 926
653 142 345
654 141 909
655 141 161
656 140 116
657 139 816
658 139 237
659 138 396
660 138 616
661 138 850
662 136 199
663 136 338
664 135 967
665 135 488
666 134 398
667 133 366
668 132 225
669 132 638
670 131 553
671 131 311
672 131 531
673 129 337
674 128 664
675 128 13
676 128 223
677 127 241
678 127 160
679 126 857
680 125 619
681 125 281
682 125 130
683 125 327
684 124 349
685 124 849
686 124 131
687 124 562
688 124 127
689 124 459
690 123 982
691 123 407
692 122 219
693 120 162
694 119 536
695 119 371
696 117 807
697 117 65
698 116 908
699 116 330
700 115 493
701 115 955
702 115 223
703 111 665
704 111 426
705 109 284
706 108 360
707 107 358
708 107 886
709 107 977
710 106 50
711 106 37
712 106 980
713 105 857
714 104 25
715 103 962
716 102 800
717 102 936
718 102 469
719 101 177
720 101 223
721 99 392
722 99 560
723 98 810
724 96 149
725 95 669
726 93 919
727 93 501
728 92 208
729 89 642
730 88 863
731 88 830
732 86 12
733 83 963
734 82 704
735 82 146
736 81 723
737 81 336
738 81 872
739 81 983
740 80 796
741 80 525
742 80 135
743 80 935
744 79 467
745 79 924
746 77 469
747 77 649
748 76 679
749 75 995
750 75 49
